\ SCIP STATISTICS
\   Problem name     : neos-3046615-murg
\   Variables        : 274 (240 binary, 16 integer, 0 implicit integer, 18 continuous)
\   Constraints      : 498
Minimize
 Obj: +1 C0017 +1 C0018
Subject to
 R0001: +1 C0019 +1 C0034 = +1
 R0002: +1 C0020 +1 C0049 = +1
 R0003: +1 C0021 +1 C0064 = +1
 R0004: +1 C0022 +1 C0079 = +1
 R0005: +1 C0023 +1 C0094 = +1
 R0006: +1 C0024 +1 C0109 = +1
 R0007: +1 C0025 +1 C0124 = +1
 R0008: +1 C0026 +1 C0139 = +1
 R0009: +1 C0027 +1 C0154 = +1
 R0010: +1 C0028 +1 C0169 = +1
 R0011: +1 C0029 +1 C0184 = +1
 R0012: +1 C0030 +1 C0199 = +1
 R0013: +1 C0031 +1 C0214 = +1
 R0014: +1 C0032 +1 C0229 = +1
 R0015: +1 C0033 +1 C0244 = +1
 R0016: +1 C0019 +1 C0034 = +1
 R0017: +1 C0035 +1 C0050 = +1
 R0018: +1 C0036 +1 C0065 = +1
 R0019: +1 C0037 +1 C0080 = +1
 R0020: +1 C0038 +1 C0095 = +1
 R0021: +1 C0039 +1 C0110 = +1
 R0022: +1 C0040 +1 C0125 = +1
 R0023: +1 C0041 +1 C0140 = +1
 R0024: +1 C0042 +1 C0155 = +1
 R0025: +1 C0043 +1 C0170 = +1
 R0026: +1 C0044 +1 C0185 = +1
 R0027: +1 C0045 +1 C0200 = +1
 R0028: +1 C0046 +1 C0215 = +1
 R0029: +1 C0047 +1 C0230 = +1
 R0030: +1 C0048 +1 C0245 = +1
 R0031: +1 C0020 +1 C0049 = +1
 R0032: +1 C0035 +1 C0050 = +1
 R0033: +1 C0051 +1 C0066 = +1
 R0034: +1 C0052 +1 C0081 = +1
 R0035: +1 C0053 +1 C0096 = +1
 R0036: +1 C0054 +1 C0111 = +1
 R0037: +1 C0055 +1 C0126 = +1
 R0038: +1 C0056 +1 C0141 = +1
 R0039: +1 C0057 +1 C0156 = +1
 R0040: +1 C0058 +1 C0171 = +1
 R0041: +1 C0059 +1 C0186 = +1
 R0042: +1 C0060 +1 C0201 = +1
 R0043: +1 C0061 +1 C0216 = +1
 R0044: +1 C0062 +1 C0231 = +1
 R0045: +1 C0063 +1 C0246 = +1
 R0046: +1 C0021 +1 C0064 = +1
 R0047: +1 C0036 +1 C0065 = +1
 R0048: +1 C0051 +1 C0066 = +1
 R0049: +1 C0067 +1 C0082 = +1
 R0050: +1 C0068 +1 C0097 = +1
 R0051: +1 C0069 +1 C0112 = +1
 R0052: +1 C0070 +1 C0127 = +1
 R0053: +1 C0071 +1 C0142 = +1
 R0054: +1 C0072 +1 C0157 = +1
 R0055: +1 C0073 +1 C0172 = +1
 R0056: +1 C0074 +1 C0187 = +1
 R0057: +1 C0075 +1 C0202 = +1
 R0058: +1 C0076 +1 C0217 = +1
 R0059: +1 C0077 +1 C0232 = +1
 R0060: +1 C0078 +1 C0247 = +1
 R0061: +1 C0022 +1 C0079 = +1
 R0062: +1 C0037 +1 C0080 = +1
 R0063: +1 C0052 +1 C0081 = +1
 R0064: +1 C0067 +1 C0082 = +1
 R0065: +1 C0083 +1 C0098 = +1
 R0066: +1 C0084 +1 C0113 = +1
 R0067: +1 C0085 +1 C0128 = +1
 R0068: +1 C0086 +1 C0143 = +1
 R0069: +1 C0087 +1 C0158 = +1
 R0070: +1 C0088 +1 C0173 = +1
 R0071: +1 C0089 +1 C0188 = +1
 R0072: +1 C0090 +1 C0203 = +1
 R0073: +1 C0091 +1 C0218 = +1
 R0074: +1 C0092 +1 C0233 = +1
 R0075: +1 C0093 +1 C0248 = +1
 R0076: +1 C0023 +1 C0094 = +1
 R0077: +1 C0038 +1 C0095 = +1
 R0078: +1 C0053 +1 C0096 = +1
 R0079: +1 C0068 +1 C0097 = +1
 R0080: +1 C0083 +1 C0098 = +1
 R0081: +1 C0099 +1 C0114 = +1
 R0082: +1 C0100 +1 C0129 = +1
 R0083: +1 C0101 +1 C0144 = +1
 R0084: +1 C0102 +1 C0159 = +1
 R0085: +1 C0103 +1 C0174 = +1
 R0086: +1 C0104 +1 C0189 = +1
 R0087: +1 C0105 +1 C0204 = +1
 R0088: +1 C0106 +1 C0219 = +1
 R0089: +1 C0107 +1 C0234 = +1
 R0090: +1 C0108 +1 C0249 = +1
 R0091: +1 C0024 +1 C0109 = +1
 R0092: +1 C0039 +1 C0110 = +1
 R0093: +1 C0054 +1 C0111 = +1
 R0094: +1 C0069 +1 C0112 = +1
 R0095: +1 C0084 +1 C0113 = +1
 R0096: +1 C0099 +1 C0114 = +1
 R0097: +1 C0115 +1 C0130 = +1
 R0098: +1 C0116 +1 C0145 = +1
 R0099: +1 C0117 +1 C0160 = +1
 R0100: +1 C0118 +1 C0175 = +1
 R0101: +1 C0119 +1 C0190 = +1
 R0102: +1 C0120 +1 C0205 = +1
 R0103: +1 C0121 +1 C0220 = +1
 R0104: +1 C0122 +1 C0235 = +1
 R0105: +1 C0123 +1 C0250 = +1
 R0106: +1 C0025 +1 C0124 = +1
 R0107: +1 C0040 +1 C0125 = +1
 R0108: +1 C0055 +1 C0126 = +1
 R0109: +1 C0070 +1 C0127 = +1
 R0110: +1 C0085 +1 C0128 = +1
 R0111: +1 C0100 +1 C0129 = +1
 R0112: +1 C0115 +1 C0130 = +1
 R0113: +1 C0131 +1 C0146 = +1
 R0114: +1 C0132 +1 C0161 = +1
 R0115: +1 C0133 +1 C0176 = +1
 R0116: +1 C0134 +1 C0191 = +1
 R0117: +1 C0135 +1 C0206 = +1
 R0118: +1 C0136 +1 C0221 = +1
 R0119: +1 C0137 +1 C0236 = +1
 R0120: +1 C0138 +1 C0251 = +1
 R0121: +1 C0026 +1 C0139 = +1
 R0122: +1 C0041 +1 C0140 = +1
 R0123: +1 C0056 +1 C0141 = +1
 R0124: +1 C0071 +1 C0142 = +1
 R0125: +1 C0086 +1 C0143 = +1
 R0126: +1 C0101 +1 C0144 = +1
 R0127: +1 C0116 +1 C0145 = +1
 R0128: +1 C0131 +1 C0146 = +1
 R0129: +1 C0147 +1 C0162 = +1
 R0130: +1 C0148 +1 C0177 = +1
 R0131: +1 C0149 +1 C0192 = +1
 R0132: +1 C0150 +1 C0207 = +1
 R0133: +1 C0151 +1 C0222 = +1
 R0134: +1 C0152 +1 C0237 = +1
 R0135: +1 C0153 +1 C0252 = +1
 R0136: +1 C0027 +1 C0154 = +1
 R0137: +1 C0042 +1 C0155 = +1
 R0138: +1 C0057 +1 C0156 = +1
 R0139: +1 C0072 +1 C0157 = +1
 R0140: +1 C0087 +1 C0158 = +1
 R0141: +1 C0102 +1 C0159 = +1
 R0142: +1 C0117 +1 C0160 = +1
 R0143: +1 C0132 +1 C0161 = +1
 R0144: +1 C0147 +1 C0162 = +1
 R0145: +1 C0163 +1 C0178 = +1
 R0146: +1 C0164 +1 C0193 = +1
 R0147: +1 C0165 +1 C0208 = +1
 R0148: +1 C0166 +1 C0223 = +1
 R0149: +1 C0167 +1 C0238 = +1
 R0150: +1 C0168 +1 C0253 = +1
 R0151: +1 C0028 +1 C0169 = +1
 R0152: +1 C0043 +1 C0170 = +1
 R0153: +1 C0058 +1 C0171 = +1
 R0154: +1 C0073 +1 C0172 = +1
 R0155: +1 C0088 +1 C0173 = +1
 R0156: +1 C0103 +1 C0174 = +1
 R0157: +1 C0118 +1 C0175 = +1
 R0158: +1 C0133 +1 C0176 = +1
 R0159: +1 C0148 +1 C0177 = +1
 R0160: +1 C0163 +1 C0178 = +1
 R0161: +1 C0179 +1 C0194 = +1
 R0162: +1 C0180 +1 C0209 = +1
 R0163: +1 C0181 +1 C0224 = +1
 R0164: +1 C0182 +1 C0239 = +1
 R0165: +1 C0183 +1 C0254 = +1
 R0166: +1 C0029 +1 C0184 = +1
 R0167: +1 C0044 +1 C0185 = +1
 R0168: +1 C0059 +1 C0186 = +1
 R0169: +1 C0074 +1 C0187 = +1
 R0170: +1 C0089 +1 C0188 = +1
 R0171: +1 C0104 +1 C0189 = +1
 R0172: +1 C0119 +1 C0190 = +1
 R0173: +1 C0134 +1 C0191 = +1
 R0174: +1 C0149 +1 C0192 = +1
 R0175: +1 C0164 +1 C0193 = +1
 R0176: +1 C0179 +1 C0194 = +1
 R0177: +1 C0195 +1 C0210 = +1
 R0178: +1 C0196 +1 C0225 = +1
 R0179: +1 C0197 +1 C0240 = +1
 R0180: +1 C0198 +1 C0255 = +1
 R0181: +1 C0030 +1 C0199 = +1
 R0182: +1 C0045 +1 C0200 = +1
 R0183: +1 C0060 +1 C0201 = +1
 R0184: +1 C0075 +1 C0202 = +1
 R0185: +1 C0090 +1 C0203 = +1
 R0186: +1 C0105 +1 C0204 = +1
 R0187: +1 C0120 +1 C0205 = +1
 R0188: +1 C0135 +1 C0206 = +1
 R0189: +1 C0150 +1 C0207 = +1
 R0190: +1 C0165 +1 C0208 = +1
 R0191: +1 C0180 +1 C0209 = +1
 R0192: +1 C0195 +1 C0210 = +1
 R0193: +1 C0211 +1 C0226 = +1
 R0194: +1 C0212 +1 C0241 = +1
 R0195: +1 C0213 +1 C0256 = +1
 R0196: +1 C0031 +1 C0214 = +1
 R0197: +1 C0046 +1 C0215 = +1
 R0198: +1 C0061 +1 C0216 = +1
 R0199: +1 C0076 +1 C0217 = +1
 R0200: +1 C0091 +1 C0218 = +1
 R0201: +1 C0106 +1 C0219 = +1
 R0202: +1 C0121 +1 C0220 = +1
 R0203: +1 C0136 +1 C0221 = +1
 R0204: +1 C0151 +1 C0222 = +1
 R0205: +1 C0166 +1 C0223 = +1
 R0206: +1 C0181 +1 C0224 = +1
 R0207: +1 C0196 +1 C0225 = +1
 R0208: +1 C0211 +1 C0226 = +1
 R0209: +1 C0227 +1 C0242 = +1
 R0210: +1 C0228 +1 C0257 = +1
 R0211: +1 C0032 +1 C0229 = +1
 R0212: +1 C0047 +1 C0230 = +1
 R0213: +1 C0062 +1 C0231 = +1
 R0214: +1 C0077 +1 C0232 = +1
 R0215: +1 C0092 +1 C0233 = +1
 R0216: +1 C0107 +1 C0234 = +1
 R0217: +1 C0122 +1 C0235 = +1
 R0218: +1 C0137 +1 C0236 = +1
 R0219: +1 C0152 +1 C0237 = +1
 R0220: +1 C0167 +1 C0238 = +1
 R0221: +1 C0182 +1 C0239 = +1
 R0222: +1 C0197 +1 C0240 = +1
 R0223: +1 C0212 +1 C0241 = +1
 R0224: +1 C0227 +1 C0242 = +1
 R0225: +1 C0243 +1 C0258 = +1
 R0226: +1 C0033 +1 C0244 = +1
 R0227: +1 C0048 +1 C0245 = +1
 R0228: +1 C0063 +1 C0246 = +1
 R0229: +1 C0078 +1 C0247 = +1
 R0230: +1 C0093 +1 C0248 = +1
 R0231: +1 C0108 +1 C0249 = +1
 R0232: +1 C0123 +1 C0250 = +1
 R0233: +1 C0138 +1 C0251 = +1
 R0234: +1 C0153 +1 C0252 = +1
 R0235: +1 C0168 +1 C0253 = +1
 R0236: +1 C0183 +1 C0254 = +1
 R0237: +1 C0198 +1 C0255 = +1
 R0238: +1 C0213 +1 C0256 = +1
 R0239: +1 C0228 +1 C0257 = +1
 R0240: +1 C0243 +1 C0258 = +1
 R0241: +10000 C0019 +1 C0259 -1 C0260 >= +12
 R0242: +10000 C0020 +1 C0259 -1 C0261 >= +7
 R0243: +10000 C0021 +1 C0259 -1 C0262 >= +11
 R0244: +10000 C0022 +1 C0259 -1 C0263 >= +14
 R0245: +10000 C0023 +1 C0259 -1 C0264 >= +8
 R0246: +10000 C0024 +1 C0259 -1 C0265 >= +16
 R0247: +10000 C0025 +1 C0259 -1 C0266 >= +14
 R0248: +10000 C0026 +1 C0259 -1 C0267 >= +10
 R0249: +10000 C0027 +1 C0259 -1 C0268 >= +7
 R0250: +10000 C0028 +1 C0259 -1 C0269 >= +10
 R0251: +10000 C0029 +1 C0259 -1 C0270 >= +15
 R0252: +10000 C0030 +1 C0259 -1 C0271 >= +3
 R0253: +10000 C0031 +1 C0259 -1 C0272 >= +10
 R0254: +10000 C0032 +1 C0259 -1 C0273 >= +13
 R0255: +10000 C0033 +1 C0259 -1 C0274 >= +6
 R0256: +10000 C0034 -1 C0259 +1 C0260 >= +11
 R0257: +10000 C0035 +1 C0260 -1 C0261 >= +7
 R0258: +10000 C0036 +1 C0260 -1 C0262 >= +11
 R0259: +10000 C0037 +1 C0260 -1 C0263 >= +14
 R0260: +10000 C0038 +1 C0260 -1 C0264 >= +8
 R0261: +10000 C0039 +1 C0260 -1 C0265 >= +16
 R0262: +10000 C0040 +1 C0260 -1 C0266 >= +14
 R0263: +10000 C0041 +1 C0260 -1 C0267 >= +10
 R0264: +10000 C0042 +1 C0260 -1 C0268 >= +7
 R0265: +10000 C0043 +1 C0260 -1 C0269 >= +10
 R0266: +10000 C0044 +1 C0260 -1 C0270 >= +15
 R0267: +10000 C0045 +1 C0260 -1 C0271 >= +3
 R0268: +10000 C0046 +1 C0260 -1 C0272 >= +10
 R0269: +10000 C0047 +1 C0260 -1 C0273 >= +13
 R0270: +10000 C0048 +1 C0260 -1 C0274 >= +6
 R0271: +10000 C0049 -1 C0259 +1 C0261 >= +11
 R0272: +10000 C0050 -1 C0260 +1 C0261 >= +12
 R0273: +10000 C0051 +1 C0261 -1 C0262 >= +11
 R0274: +10000 C0052 +1 C0261 -1 C0263 >= +14
 R0275: +10000 C0053 +1 C0261 -1 C0264 >= +8
 R0276: +10000 C0054 +1 C0261 -1 C0265 >= +16
 R0277: +10000 C0055 +1 C0261 -1 C0266 >= +14
 R0278: +10000 C0056 +1 C0261 -1 C0267 >= +10
 R0279: +10000 C0057 +1 C0261 -1 C0268 >= +7
 R0280: +10000 C0058 +1 C0261 -1 C0269 >= +10
 R0281: +10000 C0059 +1 C0261 -1 C0270 >= +15
 R0282: +10000 C0060 +1 C0261 -1 C0271 >= +3
 R0283: +10000 C0061 +1 C0261 -1 C0272 >= +10
 R0284: +10000 C0062 +1 C0261 -1 C0273 >= +13
 R0285: +10000 C0063 +1 C0261 -1 C0274 >= +6
 R0286: +10000 C0064 -1 C0259 +1 C0262 >= +11
 R0287: +10000 C0065 -1 C0260 +1 C0262 >= +12
 R0288: +10000 C0066 -1 C0261 +1 C0262 >= +7
 R0289: +10000 C0067 +1 C0262 -1 C0263 >= +14
 R0290: +10000 C0068 +1 C0262 -1 C0264 >= +8
 R0291: +10000 C0069 +1 C0262 -1 C0265 >= +16
 R0292: +10000 C0070 +1 C0262 -1 C0266 >= +14
 R0293: +10000 C0071 +1 C0262 -1 C0267 >= +10
 R0294: +10000 C0072 +1 C0262 -1 C0268 >= +7
 R0295: +10000 C0073 +1 C0262 -1 C0269 >= +10
 R0296: +10000 C0074 +1 C0262 -1 C0270 >= +15
 R0297: +10000 C0075 +1 C0262 -1 C0271 >= +3
 R0298: +10000 C0076 +1 C0262 -1 C0272 >= +10
 R0299: +10000 C0077 +1 C0262 -1 C0273 >= +13
 R0300: +10000 C0078 +1 C0262 -1 C0274 >= +6
 R0301: +10000 C0079 -1 C0259 +1 C0263 >= +11
 R0302: +10000 C0080 -1 C0260 +1 C0263 >= +12
 R0303: +10000 C0081 -1 C0261 +1 C0263 >= +7
 R0304: +10000 C0082 -1 C0262 +1 C0263 >= +11
 R0305: +10000 C0083 +1 C0263 -1 C0264 >= +8
 R0306: +10000 C0084 +1 C0263 -1 C0265 >= +16
 R0307: +10000 C0085 +1 C0263 -1 C0266 >= +14
 R0308: +10000 C0086 +1 C0263 -1 C0267 >= +10
 R0309: +10000 C0087 +1 C0263 -1 C0268 >= +7
 R0310: +10000 C0088 +1 C0263 -1 C0269 >= +10
 R0311: +10000 C0089 +1 C0263 -1 C0270 >= +15
 R0312: +10000 C0090 +1 C0263 -1 C0271 >= +3
 R0313: +10000 C0091 +1 C0263 -1 C0272 >= +10
 R0314: +10000 C0092 +1 C0263 -1 C0273 >= +13
 R0315: +10000 C0093 +1 C0263 -1 C0274 >= +6
 R0316: +10000 C0094 -1 C0259 +1 C0264 >= +11
 R0317: +10000 C0095 -1 C0260 +1 C0264 >= +12
 R0318: +10000 C0096 -1 C0261 +1 C0264 >= +7
 R0319: +10000 C0097 -1 C0262 +1 C0264 >= +11
 R0320: +10000 C0098 -1 C0263 +1 C0264 >= +14
 R0321: +10000 C0099 +1 C0264 -1 C0265 >= +16
 R0322: +10000 C0100 +1 C0264 -1 C0266 >= +14
 R0323: +10000 C0101 +1 C0264 -1 C0267 >= +10
 R0324: +10000 C0102 +1 C0264 -1 C0268 >= +7
 R0325: +10000 C0103 +1 C0264 -1 C0269 >= +10
 R0326: +10000 C0104 +1 C0264 -1 C0270 >= +15
 R0327: +10000 C0105 +1 C0264 -1 C0271 >= +3
 R0328: +10000 C0106 +1 C0264 -1 C0272 >= +10
 R0329: +10000 C0107 +1 C0264 -1 C0273 >= +13
 R0330: +10000 C0108 +1 C0264 -1 C0274 >= +6
 R0331: +10000 C0109 -1 C0259 +1 C0265 >= +11
 R0332: +10000 C0110 -1 C0260 +1 C0265 >= +12
 R0333: +10000 C0111 -1 C0261 +1 C0265 >= +7
 R0334: +10000 C0112 -1 C0262 +1 C0265 >= +11
 R0335: +10000 C0113 -1 C0263 +1 C0265 >= +14
 R0336: +10000 C0114 -1 C0264 +1 C0265 >= +8
 R0337: +10000 C0115 +1 C0265 -1 C0266 >= +14
 R0338: +10000 C0116 +1 C0265 -1 C0267 >= +10
 R0339: +10000 C0117 +1 C0265 -1 C0268 >= +7
 R0340: +10000 C0118 +1 C0265 -1 C0269 >= +10
 R0341: +10000 C0119 +1 C0265 -1 C0270 >= +15
 R0342: +10000 C0120 +1 C0265 -1 C0271 >= +3
 R0343: +10000 C0121 +1 C0265 -1 C0272 >= +10
 R0344: +10000 C0122 +1 C0265 -1 C0273 >= +13
 R0345: +10000 C0123 +1 C0265 -1 C0274 >= +6
 R0346: +10000 C0124 -1 C0259 +1 C0266 >= +11
 R0347: +10000 C0125 -1 C0260 +1 C0266 >= +12
 R0348: +10000 C0126 -1 C0261 +1 C0266 >= +7
 R0349: +10000 C0127 -1 C0262 +1 C0266 >= +11
 R0350: +10000 C0128 -1 C0263 +1 C0266 >= +14
 R0351: +10000 C0129 -1 C0264 +1 C0266 >= +8
 R0352: +10000 C0130 -1 C0265 +1 C0266 >= +16
 R0353: +10000 C0131 +1 C0266 -1 C0267 >= +10
 R0354: +10000 C0132 +1 C0266 -1 C0268 >= +7
 R0355: +10000 C0133 +1 C0266 -1 C0269 >= +10
 R0356: +10000 C0134 +1 C0266 -1 C0270 >= +15
 R0357: +10000 C0135 +1 C0266 -1 C0271 >= +3
 R0358: +10000 C0136 +1 C0266 -1 C0272 >= +10
 R0359: +10000 C0137 +1 C0266 -1 C0273 >= +13
 R0360: +10000 C0138 +1 C0266 -1 C0274 >= +6
 R0361: +10000 C0139 -1 C0259 +1 C0267 >= +11
 R0362: +10000 C0140 -1 C0260 +1 C0267 >= +12
 R0363: +10000 C0141 -1 C0261 +1 C0267 >= +7
 R0364: +10000 C0142 -1 C0262 +1 C0267 >= +11
 R0365: +10000 C0143 -1 C0263 +1 C0267 >= +14
 R0366: +10000 C0144 -1 C0264 +1 C0267 >= +8
 R0367: +10000 C0145 -1 C0265 +1 C0267 >= +16
 R0368: +10000 C0146 -1 C0266 +1 C0267 >= +14
 R0369: +10000 C0147 +1 C0267 -1 C0268 >= +7
 R0370: +10000 C0148 +1 C0267 -1 C0269 >= +10
 R0371: +10000 C0149 +1 C0267 -1 C0270 >= +15
 R0372: +10000 C0150 +1 C0267 -1 C0271 >= +3
 R0373: +10000 C0151 +1 C0267 -1 C0272 >= +10
 R0374: +10000 C0152 +1 C0267 -1 C0273 >= +13
 R0375: +10000 C0153 +1 C0267 -1 C0274 >= +6
 R0376: +10000 C0154 -1 C0259 +1 C0268 >= +11
 R0377: +10000 C0155 -1 C0260 +1 C0268 >= +12
 R0378: +10000 C0156 -1 C0261 +1 C0268 >= +7
 R0379: +10000 C0157 -1 C0262 +1 C0268 >= +11
 R0380: +10000 C0158 -1 C0263 +1 C0268 >= +14
 R0381: +10000 C0159 -1 C0264 +1 C0268 >= +8
 R0382: +10000 C0160 -1 C0265 +1 C0268 >= +16
 R0383: +10000 C0161 -1 C0266 +1 C0268 >= +14
 R0384: +10000 C0162 -1 C0267 +1 C0268 >= +10
 R0385: +10000 C0163 +1 C0268 -1 C0269 >= +10
 R0386: +10000 C0164 +1 C0268 -1 C0270 >= +15
 R0387: +10000 C0165 +1 C0268 -1 C0271 >= +3
 R0388: +10000 C0166 +1 C0268 -1 C0272 >= +10
 R0389: +10000 C0167 +1 C0268 -1 C0273 >= +13
 R0390: +10000 C0168 +1 C0268 -1 C0274 >= +6
 R0391: +10000 C0169 -1 C0259 +1 C0269 >= +11
 R0392: +10000 C0170 -1 C0260 +1 C0269 >= +12
 R0393: +10000 C0171 -1 C0261 +1 C0269 >= +7
 R0394: +10000 C0172 -1 C0262 +1 C0269 >= +11
 R0395: +10000 C0173 -1 C0263 +1 C0269 >= +14
 R0396: +10000 C0174 -1 C0264 +1 C0269 >= +8
 R0397: +10000 C0175 -1 C0265 +1 C0269 >= +16
 R0398: +10000 C0176 -1 C0266 +1 C0269 >= +14
 R0399: +10000 C0177 -1 C0267 +1 C0269 >= +10
 R0400: +10000 C0178 -1 C0268 +1 C0269 >= +7
 R0401: +10000 C0179 +1 C0269 -1 C0270 >= +15
 R0402: +10000 C0180 +1 C0269 -1 C0271 >= +3
 R0403: +10000 C0181 +1 C0269 -1 C0272 >= +10
 R0404: +10000 C0182 +1 C0269 -1 C0273 >= +13
 R0405: +10000 C0183 +1 C0269 -1 C0274 >= +6
 R0406: +10000 C0184 -1 C0259 +1 C0270 >= +11
 R0407: +10000 C0185 -1 C0260 +1 C0270 >= +12
 R0408: +10000 C0186 -1 C0261 +1 C0270 >= +7
 R0409: +10000 C0187 -1 C0262 +1 C0270 >= +11
 R0410: +10000 C0188 -1 C0263 +1 C0270 >= +14
 R0411: +10000 C0189 -1 C0264 +1 C0270 >= +8
 R0412: +10000 C0190 -1 C0265 +1 C0270 >= +16
 R0413: +10000 C0191 -1 C0266 +1 C0270 >= +14
 R0414: +10000 C0192 -1 C0267 +1 C0270 >= +10
 R0415: +10000 C0193 -1 C0268 +1 C0270 >= +7
 R0416: +10000 C0194 -1 C0269 +1 C0270 >= +10
 R0417: +10000 C0195 +1 C0270 -1 C0271 >= +3
 R0418: +10000 C0196 +1 C0270 -1 C0272 >= +10
 R0419: +10000 C0197 +1 C0270 -1 C0273 >= +13
 R0420: +10000 C0198 +1 C0270 -1 C0274 >= +6
 R0421: +10000 C0199 -1 C0259 +1 C0271 >= +11
 R0422: +10000 C0200 -1 C0260 +1 C0271 >= +12
 R0423: +10000 C0201 -1 C0261 +1 C0271 >= +7
 R0424: +10000 C0202 -1 C0262 +1 C0271 >= +11
 R0425: +10000 C0203 -1 C0263 +1 C0271 >= +14
 R0426: +10000 C0204 -1 C0264 +1 C0271 >= +8
 R0427: +10000 C0205 -1 C0265 +1 C0271 >= +16
 R0428: +10000 C0206 -1 C0266 +1 C0271 >= +14
 R0429: +10000 C0207 -1 C0267 +1 C0271 >= +10
 R0430: +10000 C0208 -1 C0268 +1 C0271 >= +7
 R0431: +10000 C0209 -1 C0269 +1 C0271 >= +10
 R0432: +10000 C0210 -1 C0270 +1 C0271 >= +15
 R0433: +10000 C0211 +1 C0271 -1 C0272 >= +10
 R0434: +10000 C0212 +1 C0271 -1 C0273 >= +13
 R0435: +10000 C0213 +1 C0271 -1 C0274 >= +6
 R0436: +10000 C0214 -1 C0259 +1 C0272 >= +11
 R0437: +10000 C0215 -1 C0260 +1 C0272 >= +12
 R0438: +10000 C0216 -1 C0261 +1 C0272 >= +7
 R0439: +10000 C0217 -1 C0262 +1 C0272 >= +11
 R0440: +10000 C0218 -1 C0263 +1 C0272 >= +14
 R0441: +10000 C0219 -1 C0264 +1 C0272 >= +8
 R0442: +10000 C0220 -1 C0265 +1 C0272 >= +16
 R0443: +10000 C0221 -1 C0266 +1 C0272 >= +14
 R0444: +10000 C0222 -1 C0267 +1 C0272 >= +10
 R0445: +10000 C0223 -1 C0268 +1 C0272 >= +7
 R0446: +10000 C0224 -1 C0269 +1 C0272 >= +10
 R0447: +10000 C0225 -1 C0270 +1 C0272 >= +15
 R0448: +10000 C0226 -1 C0271 +1 C0272 >= +3
 R0449: +10000 C0227 +1 C0272 -1 C0273 >= +13
 R0450: +10000 C0228 +1 C0272 -1 C0274 >= +6
 R0451: +10000 C0229 -1 C0259 +1 C0273 >= +11
 R0452: +10000 C0230 -1 C0260 +1 C0273 >= +12
 R0453: +10000 C0231 -1 C0261 +1 C0273 >= +7
 R0454: +10000 C0232 -1 C0262 +1 C0273 >= +11
 R0455: +10000 C0233 -1 C0263 +1 C0273 >= +14
 R0456: +10000 C0234 -1 C0264 +1 C0273 >= +8
 R0457: +10000 C0235 -1 C0265 +1 C0273 >= +16
 R0458: +10000 C0236 -1 C0266 +1 C0273 >= +14
 R0459: +10000 C0237 -1 C0267 +1 C0273 >= +10
 R0460: +10000 C0238 -1 C0268 +1 C0273 >= +7
 R0461: +10000 C0239 -1 C0269 +1 C0273 >= +10
 R0462: +10000 C0240 -1 C0270 +1 C0273 >= +15
 R0463: +10000 C0241 -1 C0271 +1 C0273 >= +3
 R0464: +10000 C0242 -1 C0272 +1 C0273 >= +10
 R0465: +10000 C0243 +1 C0273 -1 C0274 >= +6
 R0466: +10000 C0244 -1 C0259 +1 C0274 >= +11
 R0467: +10000 C0245 -1 C0260 +1 C0274 >= +12
 R0468: +10000 C0246 -1 C0261 +1 C0274 >= +7
 R0469: +10000 C0247 -1 C0262 +1 C0274 >= +11
 R0470: +10000 C0248 -1 C0263 +1 C0274 >= +14
 R0471: +10000 C0249 -1 C0264 +1 C0274 >= +8
 R0472: +10000 C0250 -1 C0265 +1 C0274 >= +16
 R0473: +10000 C0251 -1 C0266 +1 C0274 >= +14
 R0474: +10000 C0252 -1 C0267 +1 C0274 >= +10
 R0475: +10000 C0253 -1 C0268 +1 C0274 >= +7
 R0476: +10000 C0254 -1 C0269 +1 C0274 >= +10
 R0477: +10000 C0255 -1 C0270 +1 C0274 >= +15
 R0478: +10000 C0256 -1 C0271 +1 C0274 >= +3
 R0479: +10000 C0257 -1 C0272 +1 C0274 >= +10
 R0480: +10000 C0258 -1 C0273 +1 C0274 >= +13
 R0481: -1 C0001 +1 C0259 <= +22
 R0482: -1 C0002 +1 C0260 <= +2
 R0483: -1 C0003 +1 C0261 <= +11
 R0484: -1 C0004 +1 C0262 <= +46
 R0485: -1 C0005 +1 C0263 <= +21
 R0486: -1 C0006 +1 C0264 <= +13
 R0487: -1 C0007 +1 C0265 <= +45
 R0488: -1 C0008 +1 C0266 <= +46
 R0489: -1 C0009 +1 C0267 <= +19
 R0490: -1 C0010 +1 C0268 <= +69
 R0491: -1 C0011 +1 C0269 <= +44
 R0492: -1 C0012 +1 C0270 <= +23
 R0493: -1 C0013 +1 C0271 <= +32
 R0494: -1 C0014 +1 C0272 <= +7
 R0495: -1 C0015 +1 C0273 <= +30
 R0496: -1 C0016 +1 C0274 <= +16
 R0497: -1 C0018 +1 C0259 +1 C0260 +1 C0261 +1 C0262 +1 C0263 +1 C0264 +1 C0265 +1 C0266 +1 C0267 +1 C0268
  +1 C0269 +1 C0270 +1 C0271 +1 C0272 +1 C0273 +1 C0274 <= +203
 R0498: +1 C0001 +1 C0002 +1 C0003 +1 C0004 +1 C0005 +1 C0006 +1 C0007 +1 C0008 +1 C0009 +1 C0010 +1 C0011
  +1 C0012 +1 C0013 +1 C0014 +1 C0015 +1 C0016 -1 C0017 <= +0
Bounds
 0 <= C0258 <= 1
 0 <= C0019 <= 1
 0 <= C0020 <= 1
 0 <= C0021 <= 1
 0 <= C0022 <= 1
 0 <= C0023 <= 1
 0 <= C0024 <= 1
 0 <= C0025 <= 1
 0 <= C0026 <= 1
 0 <= C0027 <= 1
 0 <= C0028 <= 1
 0 <= C0029 <= 1
 0 <= C0030 <= 1
 0 <= C0031 <= 1
 0 <= C0032 <= 1
 0 <= C0033 <= 1
 0 <= C0034 <= 1
 0 <= C0035 <= 1
 0 <= C0036 <= 1
 0 <= C0037 <= 1
 0 <= C0038 <= 1
 0 <= C0039 <= 1
 0 <= C0040 <= 1
 0 <= C0041 <= 1
 0 <= C0042 <= 1
 0 <= C0043 <= 1
 0 <= C0044 <= 1
 0 <= C0045 <= 1
 0 <= C0046 <= 1
 0 <= C0047 <= 1
 0 <= C0048 <= 1
 0 <= C0049 <= 1
 0 <= C0050 <= 1
 0 <= C0051 <= 1
 0 <= C0052 <= 1
 0 <= C0053 <= 1
 0 <= C0054 <= 1
 0 <= C0055 <= 1
 0 <= C0056 <= 1
 0 <= C0057 <= 1
 0 <= C0058 <= 1
 0 <= C0059 <= 1
 0 <= C0060 <= 1
 0 <= C0061 <= 1
 0 <= C0062 <= 1
 0 <= C0063 <= 1
 0 <= C0064 <= 1
 0 <= C0065 <= 1
 0 <= C0066 <= 1
 0 <= C0067 <= 1
 0 <= C0068 <= 1
 0 <= C0069 <= 1
 0 <= C0070 <= 1
 0 <= C0071 <= 1
 0 <= C0072 <= 1
 0 <= C0073 <= 1
 0 <= C0074 <= 1
 0 <= C0075 <= 1
 0 <= C0076 <= 1
 0 <= C0077 <= 1
 0 <= C0078 <= 1
 0 <= C0079 <= 1
 0 <= C0080 <= 1
 0 <= C0081 <= 1
 0 <= C0082 <= 1
 0 <= C0083 <= 1
 0 <= C0084 <= 1
 0 <= C0085 <= 1
 0 <= C0086 <= 1
 0 <= C0087 <= 1
 0 <= C0088 <= 1
 0 <= C0089 <= 1
 0 <= C0090 <= 1
 0 <= C0091 <= 1
 0 <= C0092 <= 1
 0 <= C0093 <= 1
 0 <= C0094 <= 1
 0 <= C0095 <= 1
 0 <= C0096 <= 1
 0 <= C0097 <= 1
 0 <= C0098 <= 1
 0 <= C0099 <= 1
 0 <= C0100 <= 1
 0 <= C0101 <= 1
 0 <= C0102 <= 1
 0 <= C0103 <= 1
 0 <= C0104 <= 1
 0 <= C0105 <= 1
 0 <= C0106 <= 1
 0 <= C0107 <= 1
 0 <= C0108 <= 1
 0 <= C0109 <= 1
 0 <= C0110 <= 1
 0 <= C0111 <= 1
 0 <= C0112 <= 1
 0 <= C0113 <= 1
 0 <= C0114 <= 1
 0 <= C0115 <= 1
 0 <= C0116 <= 1
 0 <= C0117 <= 1
 0 <= C0118 <= 1
 0 <= C0119 <= 1
 0 <= C0120 <= 1
 0 <= C0121 <= 1
 0 <= C0122 <= 1
 0 <= C0123 <= 1
 0 <= C0124 <= 1
 0 <= C0125 <= 1
 0 <= C0126 <= 1
 0 <= C0127 <= 1
 0 <= C0128 <= 1
 0 <= C0129 <= 1
 0 <= C0130 <= 1
 0 <= C0131 <= 1
 0 <= C0132 <= 1
 0 <= C0133 <= 1
 0 <= C0134 <= 1
 0 <= C0135 <= 1
 0 <= C0136 <= 1
 0 <= C0137 <= 1
 0 <= C0138 <= 1
 0 <= C0139 <= 1
 0 <= C0140 <= 1
 0 <= C0141 <= 1
 0 <= C0142 <= 1
 0 <= C0143 <= 1
 0 <= C0144 <= 1
 0 <= C0145 <= 1
 0 <= C0146 <= 1
 0 <= C0147 <= 1
 0 <= C0148 <= 1
 0 <= C0149 <= 1
 0 <= C0150 <= 1
 0 <= C0151 <= 1
 0 <= C0152 <= 1
 0 <= C0153 <= 1
 0 <= C0154 <= 1
 0 <= C0155 <= 1
 0 <= C0156 <= 1
 0 <= C0157 <= 1
 0 <= C0158 <= 1
 0 <= C0159 <= 1
 0 <= C0160 <= 1
 0 <= C0161 <= 1
 0 <= C0162 <= 1
 0 <= C0163 <= 1
 0 <= C0164 <= 1
 0 <= C0165 <= 1
 0 <= C0166 <= 1
 0 <= C0167 <= 1
 0 <= C0168 <= 1
 0 <= C0169 <= 1
 0 <= C0170 <= 1
 0 <= C0171 <= 1
 0 <= C0172 <= 1
 0 <= C0173 <= 1
 0 <= C0174 <= 1
 0 <= C0175 <= 1
 0 <= C0176 <= 1
 0 <= C0177 <= 1
 0 <= C0178 <= 1
 0 <= C0179 <= 1
 0 <= C0180 <= 1
 0 <= C0181 <= 1
 0 <= C0182 <= 1
 0 <= C0183 <= 1
 0 <= C0184 <= 1
 0 <= C0185 <= 1
 0 <= C0186 <= 1
 0 <= C0187 <= 1
 0 <= C0188 <= 1
 0 <= C0189 <= 1
 0 <= C0190 <= 1
 0 <= C0191 <= 1
 0 <= C0192 <= 1
 0 <= C0193 <= 1
 0 <= C0194 <= 1
 0 <= C0195 <= 1
 0 <= C0196 <= 1
 0 <= C0197 <= 1
 0 <= C0198 <= 1
 0 <= C0199 <= 1
 0 <= C0200 <= 1
 0 <= C0201 <= 1
 0 <= C0202 <= 1
 0 <= C0203 <= 1
 0 <= C0204 <= 1
 0 <= C0205 <= 1
 0 <= C0206 <= 1
 0 <= C0207 <= 1
 0 <= C0208 <= 1
 0 <= C0209 <= 1
 0 <= C0210 <= 1
 0 <= C0211 <= 1
 0 <= C0212 <= 1
 0 <= C0213 <= 1
 0 <= C0214 <= 1
 0 <= C0215 <= 1
 0 <= C0216 <= 1
 0 <= C0217 <= 1
 0 <= C0218 <= 1
 0 <= C0219 <= 1
 0 <= C0220 <= 1
 0 <= C0221 <= 1
 0 <= C0222 <= 1
 0 <= C0223 <= 1
 0 <= C0224 <= 1
 0 <= C0225 <= 1
 0 <= C0226 <= 1
 0 <= C0227 <= 1
 0 <= C0228 <= 1
 0 <= C0229 <= 1
 0 <= C0230 <= 1
 0 <= C0231 <= 1
 0 <= C0232 <= 1
 0 <= C0233 <= 1
 0 <= C0234 <= 1
 0 <= C0235 <= 1
 0 <= C0236 <= 1
 0 <= C0237 <= 1
 0 <= C0238 <= 1
 0 <= C0239 <= 1
 0 <= C0240 <= 1
 0 <= C0241 <= 1
 0 <= C0242 <= 1
 0 <= C0243 <= 1
 0 <= C0244 <= 1
 0 <= C0245 <= 1
 0 <= C0246 <= 1
 0 <= C0247 <= 1
 0 <= C0248 <= 1
 0 <= C0249 <= 1
 0 <= C0250 <= 1
 0 <= C0251 <= 1
 0 <= C0252 <= 1
 0 <= C0253 <= 1
 0 <= C0254 <= 1
 0 <= C0255 <= 1
 0 <= C0256 <= 1
 0 <= C0257 <= 1
 28 <= C0273
 14 <= C0272
 11 <= C0271
 9 <= C0270
 28 <= C0269
 71 <= C0268
 19 <= C0267
 45 <= C0266
 55 <= C0265
 13 <= C0264
 11 <= C0263
 31 <= C0262
 7 <= C0261
 8 <= C0260
 4 <= C0259
 16 <= C0274
 C0017 free
 C0018 free
Binaries
 C0258 C0019 C0020 C0021 C0022 C0023 C0024 C0025 C0026 C0027 C0028 C0029 C0030 C0031 C0032 C0033 C0034
 C0035 C0036 C0037 C0038 C0039 C0040 C0041 C0042 C0043 C0044 C0045 C0046 C0047 C0048 C0049 C0050 C0051
 C0052 C0053 C0054 C0055 C0056 C0057 C0058 C0059 C0060 C0061 C0062 C0063 C0064 C0065 C0066 C0067 C0068
 C0069 C0070 C0071 C0072 C0073 C0074 C0075 C0076 C0077 C0078 C0079 C0080 C0081 C0082 C0083 C0084 C0085
 C0086 C0087 C0088 C0089 C0090 C0091 C0092 C0093 C0094 C0095 C0096 C0097 C0098 C0099 C0100 C0101 C0102
 C0103 C0104 C0105 C0106 C0107 C0108 C0109 C0110 C0111 C0112 C0113 C0114 C0115 C0116 C0117 C0118 C0119
 C0120 C0121 C0122 C0123 C0124 C0125 C0126 C0127 C0128 C0129 C0130 C0131 C0132 C0133 C0134 C0135 C0136
 C0137 C0138 C0139 C0140 C0141 C0142 C0143 C0144 C0145 C0146 C0147 C0148 C0149 C0150 C0151 C0152 C0153
 C0154 C0155 C0156 C0157 C0158 C0159 C0160 C0161 C0162 C0163 C0164 C0165 C0166 C0167 C0168 C0169 C0170
 C0171 C0172 C0173 C0174 C0175 C0176 C0177 C0178 C0179 C0180 C0181 C0182 C0183 C0184 C0185 C0186 C0187
 C0188 C0189 C0190 C0191 C0192 C0193 C0194 C0195 C0196 C0197 C0198 C0199 C0200 C0201 C0202 C0203 C0204
 C0205 C0206 C0207 C0208 C0209 C0210 C0211 C0212 C0213 C0214 C0215 C0216 C0217 C0218 C0219 C0220 C0221
 C0222 C0223 C0224 C0225 C0226 C0227 C0228 C0229 C0230 C0231 C0232 C0233 C0234 C0235 C0236 C0237 C0238
 C0239 C0240 C0241 C0242 C0243 C0244 C0245 C0246 C0247 C0248 C0249 C0250 C0251 C0252 C0253 C0254 C0255
 C0256 C0257
Generals
 C0273 C0272 C0271 C0270 C0269 C0268 C0267 C0266 C0265 C0264 C0263 C0262 C0261 C0260 C0259 C0274
End
